NAME : GeneratedProblem
COMMENT : SVGCrosshatch
TYPE : TSP
DIMENSION : 7
EDGE_WEIGHT_TYPE : EUC_2D
NODE_COORD_SECTION
1 10600 6800
2 10600 7100
3 10800 7100
4 11200 7300
5 11400 7400
6 11500 7500
7 11600 7500
EOF
